Geographic Exponential Decay
80 113 177 234 317 310 124 90 88 10 26 34 35 245 101 151 87 119 120 96 187 81 50 189 224 125 163 30 274 94 297 75 218 309 137 70 217 104 80 257 4 191 264 241 13 209 271 61 103 181 299 263 133 66 65 118 293 82 316 149 198 158 223 85 252 97 14 221 168 33 305 123 93 48 203 107 162 279 140 273 154
p edge 320 321
e 0 212 5.0
e 1 8 2.0
e 1 0 1.0
e 2 291 3.0
e 2 1 1.0
e 3 143 17.0
e 3 2 10.0
e 4 121 44.0
e 4 77 95.0
e 4 97 71.0
e 4 3 98.0
e 5 18 3.0
e 5 4 84.0
e 6 14 48.0
e 7 300 1.0
e 7 5 2.0
e 9 11 5.0
e 9 7 1.0
e 10 314 46.0
e 10 277 100.0
e 10 42 63.0
e 10 9 70.0
e 12 78 1.0
e 12 10 66.0
e 13 14 87.0
e 13 26 16.0
e 13 120 78.0
e 14 269 74.0
e 15 20 3.0
e 15 12 2.0
e 16 292 2.0
e 16 15 1.0
e 17 159 11.0
e 17 61 5.0
e 17 16 8.0
e 19 221 93.0
e 19 17 3.0
e 21 197 8.0
e 21 19 8.0
e 22 179 1.0
e 22 21 3.0
e 23 161 5.0
e 23 22 5.0
e 24 226 1.0
e 24 23 9.0
e 25 43 1.0
e 25 24 1.0
e 26 128 81.0
e 26 257 65.0
e 27 246 5.0
e 27 25 5.0
e 28 89 10.0
e 28 27 4.0
e 29 222 2.0
e 29 28 7.0
e 30 59 84.0
e 30 116 93.0
e 30 270 36.0
e 30 29 77.0
e 31 201 2.0
e 31 30 4.0
e 32 317 3.0
e 32 31 1.0
e 33 129 10.0
e 33 34 62.0
e 33 317 25.0
e 34 284 5.0
e 34 282 49.0
e 35 44 64.0
e 35 66 99.0
e 35 275 79.0
e 35 32 34.0
e 36 108 1.0
e 36 35 13.0
e 37 217 99.0
e 37 36 1.0
e 38 202 12.0
e 38 37 22.0
e 39 80 3.0
e 39 38 2.0
e 40 296 3.0
e 40 39 1.0
e 41 293 30.0
e 45 111 6.0
e 45 40 6.0
e 46 213 9.0
e 46 45 1.0
e 47 185 12.0
e 47 46 12.0
e 48 132 11.0
e 48 133 83.0
e 48 49 47.0
e 48 47 48.0
e 50 51 35.0
e 50 167 25.0
e 50 273 85.0
e 50 48 24.0
e 52 299 29.0
e 52 50 27.0
e 53 54 1.0
e 53 52 2.0
e 55 74 11.0
e 55 53 12.0
e 56 188 1.0
e 56 55 10.0
e 57 160 20.0
e 57 56 6.0
e 58 60 4.0
e 58 57 23.0
e 61 165 50.0
e 61 142 37.0
e 62 123 39.0
e 62 58 1.0
e 63 64 1.0
e 63 62 4.0
e 65 253 34.0
e 65 285 55.0
e 65 79 2.0
e 65 63 6.0
e 66 174 68.0
e 66 67 57.0
e 68 241 98.0
e 69 232 1.0
e 69 65 74.0
e 70 71 36.0
e 70 99 43.0
e 70 214 64.0
e 70 69 75.0
e 72 168 100.0
e 72 70 15.0
e 73 163 74.0
e 75 76 8.0
e 75 180 19.0
e 75 136 77.0
e 75 72 54.0
e 80 315 54.0
e 80 298 99.0
e 81 305 20.0
e 81 310 3.0
e 81 92 16.0
e 81 75 76.0
e 82 83 31.0
e 82 243 11.0
e 82 139 41.0
e 82 81 31.0
e 84 239 1.0
e 84 82 14.0
e 85 259 22.0
e 85 290 51.0
e 85 86 83.0
e 85 84 44.0
e 87 225 66.0
e 87 273 49.0
e 87 227 85.0
e 88 240 8.0
e 88 90 83.0
e 88 189 56.0
e 90 241 8.0
e 90 120 60.0
e 91 221 45.0
e 93 94 25.0
e 93 100 38.0
e 93 242 15.0
e 93 85 2.0
e 94 228 58.0
e 94 95 1.0
e 96 241 89.0
e 96 97 27.0
e 96 98 11.0
e 97 281 11.0
e 101 248 86.0
e 101 127 14.0
e 101 316 2.0
e 101 93 13.0
e 102 114 1.0
e 102 101 85.0
e 103 177 39.0
e 103 244 83.0
e 103 268 52.0
e 103 102 77.0
e 104 293 14.0
e 104 265 18.0
e 104 221 50.0
e 105 316 10.0
e 106 247 8.0
e 106 103 82.0
e 107 286 24.0
e 107 109 88.0
e 107 192 92.0
e 107 106 56.0
e 110 112 1.0
e 110 107 87.0
e 113 199 22.0
e 113 115 95.0
e 113 117 41.0
e 113 110 10.0
e 118 164 91.0
e 118 177 56.0
e 118 119 46.0
e 119 283 29.0
e 119 245 82.0
e 120 181 6.0
e 122 123 69.0
e 123 288 35.0
e 124 258 87.0
e 124 125 23.0
e 124 126 15.0
e 124 113 19.0
e 125 130 14.0
e 125 131 87.0
e 133 151 62.0
e 133 134 89.0
e 135 287 2.0
e 135 124 4.0
e 137 216 28.0
e 137 301 95.0
e 137 138 58.0
e 137 135 15.0
e 140 223 58.0
e 140 141 81.0
e 140 144 91.0
e 140 137 66.0
e 145 200 1.0
e 145 140 67.0
e 146 147 36.0
e 146 254 48.0
e 146 145 7.0
e 148 149 24.0
e 149 162 61.0
e 149 198 33.0
e 150 151 54.0
e 151 152 76.0
e 153 154 96.0
e 154 155 57.0
e 154 317 24.0
e 156 157 5.0
e 156 146 32.0
e 158 162 55.0
e 158 163 100.0
e 158 204 50.0
e 162 163 65.0
e 166 316 15.0
e 168 169 1.0
e 168 170 36.0
e 171 250 1.0
e 171 156 2.0
e 172 173 1.0
e 172 171 4.0
e 175 318 7.0
e 175 172 4.0
e 176 215 4.0
e 176 175 2.0
e 177 245 97.0
e 178 181 71.0
e 181 182 40.0
e 183 184 4.0
e 183 176 3.0
e 186 187 100.0
e 187 189 88.0
e 187 190 85.0
e 189 198 22.0
e 191 302 96.0
e 191 193 14.0
e 191 194 88.0
e 191 183 89.0
e 195 255 1.0
e 195 191 81.0
e 196 279 12.0
e 196 195 1.0
e 198 203 68.0
e 203 271 51.0
e 203 205 26.0
e 206 207 4.0
e 206 208 49.0
e 206 196 40.0
e 209 210 12.0
e 209 211 22.0
e 209 245 48.0
e 217 319 25.0
e 217 218 15.0
e 218 219 16.0
e 218 220 71.0
e 223 311 18.0
e 223 224 1.0
e 224 229 74.0
e 224 230 95.0
e 231 233 1.0
e 231 206 15.0
e 234 235 23.0
e 234 236 43.0
e 234 237 91.0
e 234 231 10.0
e 238 249 1.0
e 238 234 49.0
e 251 299 62.0
e 252 256 9.0
e 252 257 44.0
e 252 260 49.0
e 257 261 61.0
e 262 263 5.0
e 263 264 69.0
e 263 266 64.0
e 264 267 73.0
e 264 271 26.0
e 271 272 94.0
e 273 303 79.0
e 274 276 12.0
e 274 299 28.0
e 274 278 69.0
e 279 280 16.0
e 279 289 84.0
e 293 294 66.0
e 295 297 94.0
e 297 304 22.0
e 297 305 34.0
e 305 306 14.0
e 307 308 2.0
e 307 238 1.0
e 309 310 22.0
e 309 312 69.0
e 309 313 4.0
